
%FILE DATA:	Soccer Computational Problem for MiniZinc Models	%
%AUTHOR:	Jack Wall	%
%CONTACT:  	116397063@umail.ucc.ie			%
%LAST UPDATE:	03/02/2020, 18:19:35						%
%DESCRIPTION: 	66 games played with 44 games left				%


n=11; %number of teams

%Games to play
games=[|10,11|9,11|2,4|10,5|8,3|9,4|4,2|10,8|7,6|1,7|6,8|1,2|7,5|2,7|1,8|7,11|2,5|10,3|10,4|9,1|4,9|3,5|2,1|5,3|4,11|1,10|6,10|8,6|11,7|7,1|3,6|8,2|5,1|9,5|6,11|10,9|1,11|11,9|11,4|6,3|3,10|10,7|5,2|2,9|];

%Initial points
iPoints=[11,18,25,14,14,17,12,19,17,16,17];

%POSITION CONSTRAINTS
% [|teamID, operator, position|...]
% operators index:
%  1 for =  operator
%  2 for >  operator
%  3 for >= operator
%  4 for <  operator
%  5 for <= operator
positionConstraints=[|3,4,2|9,1,2|6,5,3|];